117

Zr      9.362851315350015      5.278793973910270     10.538845473688756
Zr     20.255979797838130     11.760349214682829      1.437420469959472
Zr     14.725432376215489      2.191530554002528      1.475285942569742
Zr     14.947028014807682     14.885700081054235     10.671479119235309
Zr      9.283156534027988     11.720461829983597      1.656892218749485
Zr     20.356966819611763      5.362641444472338     10.492334247644919
O       7.585043861533851      4.290560214967353      9.584137628136801
O      21.988192830216299     12.758745346633031      1.771866677710499
O       2.258721491556108      1.214465467895762      0.934637834722383
O      27.960210136452854     16.093621499475180     11.322995582107339
O      12.777571959069260      1.409800808878688      0.799752510802343
O      16.382273753946841     16.027434327573793     11.390286520090656
O       7.610629830005922     10.430775075389166      0.992614875855664
O      22.124871248757817      5.936308103682316     11.326800910924582
O      10.224593252495737      7.274020950177825     11.114940819562570
O      19.520212240723176      9.791352554531080      1.127352404531446
O      10.040681536280150      4.145370727985238      8.735458180777568
O      19.424991524434024     12.898265312677049      3.064908959703507
O      16.069263005484899      2.331900876920740      3.288831880825000
O      13.332251481996932     14.620022212307619      8.999945254053607
O      13.510846119952367      3.957595609913618      1.040436735707897
O      16.379572155363547     13.449327494380677     11.055057947358561
O      11.588427243663466     12.072337260063975      1.254835939607695
O      18.262566935027671      4.986340306721425     10.848827702742824
O       8.657499568918800     10.526835509843149      3.309418452799184
O      20.905058072079886      6.704568138408943      8.878211893270459
O      20.910810653245626     10.551247915113073      3.262313729201908
O       8.612996191132686      6.489005321134737      8.808292706915930
O      18.250190724174121     11.859663951427805      0.604001731395865
O      11.363351604215740      4.652172673744028     11.085668734876005
O       9.723331189729409     12.878133817902711      3.351215419859687
O      19.750833683759204      4.034777980540874      8.730868296388515
O      10.293655355121492      9.932671338204427      0.962483788801725
O      19.606883400509204      7.528399278438796     11.055337523048825
O      13.387936580705954      2.248377192292973      3.201004305166396
O      16.244807953140370     14.781134592134205      8.849227438021856
O      16.029835197278466      3.818253955593375      0.855694070243140
O      13.416110788557157     13.266583523979596     11.225641762602097
H       7.469462127046009      4.167174126250155      8.601622692508409
H       3.090277757476285      1.473542012702445      1.242571416561375
H      11.909381515720098      1.766349801977014      1.043012007619349
H       7.474228146330653      9.492782769393964      1.229268860577469
H      16.332055062519057      5.966076912559596      1.306283231156208
H      13.151372787832935     10.900109016045258     10.611076992226952
H      16.700976742759664     13.373978180577913      6.963272295228101
H      13.051530784110430      3.594910510542153      4.952955638030046
H      11.045325424764009     12.355704651508997      5.278108328084793
H      17.742199184494634      4.062286310436109      7.453811213676016
H      18.263265042494279      9.204415747379555     10.157470843207896
H      11.969423096541719      8.408403816186219      1.663509710408884
H      13.430161938392409      4.605336014057808      9.918202542230828
H      16.274031362285882     11.753439126504485      1.848598238245408
H      19.892286062210914      9.607079414920959      5.241949082165350
H       9.622344989670223      7.706089618783606      6.881441236667747
H       9.605809396962734      9.054335464175294      4.818966853007519
H      19.926543505019545      8.299714373871936      7.331312058120038
H      16.008285748341439      4.717108620197399      9.685341729612611
H      13.811681753227953     11.666011245131518      2.053830425040114
H      16.216181948434429      3.360724278103778      5.687504102726577
H      12.487122387263984     12.953447761860883      7.214819326185219
H      17.355838471059588     11.585012249395849      9.850724772171651
H      12.914101303113563      6.232409217907664      1.878852038905878
H      17.901560929225042     12.672922371534346      4.729169731802421
H      11.895938168627135      4.192968780293305      7.215473723693560
H      12.035338113000989      8.820351945832298     10.476217161870853
H      17.437539893052435      8.294854418409825      1.507183884266746
C       3.121870041206629      5.296800904749652     -0.059793755551440
C       4.416484091215862      7.685787225105423      0.072157026823137
C      10.475946320674220      2.576582407967258      7.072391217978181
C      11.754422697620877      1.840021589993730      4.745522333110244
C       2.623741521847366      1.508214447654884      5.264743705451455
C       4.326352908187151      2.270050665745809      7.452253926998931
C      12.166492342476872      5.505239449410380     -0.036460533942997
C      11.012688093916804      8.050293807971016     -0.217642482747560
C       6.222007505448416     -0.039851343259428      0.098514398161567
C       8.940175922093976     -0.005668899104029     -0.186992986623282
C       7.424876806714590      9.533722197819541      5.015937093622107
C       7.505083794345758      7.924557084224263      7.289057655819929
C      17.141996239559855      6.300042673983588      0.697626511342994
C      12.219639962717478     10.864425232514121     11.170621705430509
C      17.411761007463330     13.969498427220119      6.488254445766363
C      12.156477851160334      3.025221721171465      5.369883317173125
C      10.833762257825724     13.224592484307038      5.789023454659208
C      17.876010207221519      3.118886746761901      6.970886419719019
C      18.526689207901249     10.011564232578989     10.827427920284425
C      11.870097562547025      7.732678113189668      0.850032402676630
C      14.098352712878219      4.431999414076677     10.731159383483705
C      15.632610185270472     12.069667253259533      0.971338685434117
C      20.839618152181085      9.298261344336341      5.712037627012969
C       8.697221483827944      8.070673749864703      6.486055974706692
C       8.661464858581336      8.916202909420738      5.421988102482334
C      20.881205494944840      8.460236090814682      6.870750406546015
C      15.474331971790024      4.383053855128527     10.564382446063091
C      14.259022816892347     12.123179665521008      1.169516820558697
C      17.073489738784744      2.722143025032300      5.954824006549959
C      11.678791075650080     13.594109020735786      6.866580466745829
C      17.979693922653038     11.267850882115594     10.677841574821352
C      12.449925219641804      6.451055003101620      0.897308137794256
C      18.060448981414865     13.586911872837550      5.311487526314870
C      11.541009632619899      3.351100565232970      6.590433018973150
C      11.566620113172112      9.634273241584882     11.086457309208207
C      17.795763171492901      7.539341686211861      0.809648880847266
C       2.389811239052172      3.996307857615973     -0.005519059504775
C       5.176121369936823      8.950030214226810      0.180037382939281
C       9.784923464128202      2.992856945672449      8.318519237750474
C      12.505913153438621      1.409911829486850      3.543794892361761
C       2.159115619347294      1.391422468060534      3.898692341879022
C       5.247892570182092      2.814793945855954      8.490664929723438
C      12.698307093900510      4.162398737700618      0.083898793994935
C      10.105119580157563      9.138971034932529     -0.067010493453163
C       4.754812549206001     -0.038115778858804      0.195672521866497
C      10.423526066906760     -0.034819004287330     -0.238994465153104
C       7.472406382934304     10.261990625456409      3.766863686290732
C       7.482171819076573      6.956596935000182      8.395830082397502
C      13.843477585261176      8.775161446850372      6.272222149781146
O      13.612071013730970      8.150446611764732      7.213259362366984
O      14.210690304478122      9.370457686028885      5.343076852099837
